50
10
18	15	18	16	17	11	12	17	11	19	14	18	16	18	12	19	14	11	14	11	13	14	12	15	14	13	13	14	10	14	12	17	16	13	17	13	19	18	16	16	11	15	17	12	10	15	19	12	12	19	
0	0	0	0	24	0	0	24	0	0	
0	11	11	0	0	11	11	0	0	0	
35	0	0	0	0	0	0	35	35	35	
58	58	0	58	0	0	0	0	0	0	
47	47	0	0	47	0	0	0	47	47	
0	83	83	83	83	0	83	0	0	83	
0	49	49	49	49	49	49	49	0	0	
0	77	77	77	77	0	77	77	0	77	
0	0	0	0	29	29	0	29	29	0	
0	55	0	55	0	55	55	55	55	0	
16	16	0	16	0	16	0	0	16	0	
96	96	96	96	0	96	96	96	96	0	
94	94	0	94	0	0	94	0	0	94	
30	30	0	0	30	0	30	0	0	0	
52	52	0	0	52	52	52	0	0	52	
36	0	36	36	0	36	0	0	36	0	
65	65	0	65	65	0	0	65	65	65	
12	0	12	0	0	12	12	12	0	12	
0	0	91	91	0	0	0	0	0	91	
0	38	0	0	38	38	38	0	0	38	
0	74	0	0	0	74	0	0	74	74	
31	31	0	0	0	0	31	0	31	0	
0	67	0	0	0	0	0	0	0	0	
32	32	0	32	0	32	0	32	0	32	
0	69	69	69	0	69	69	69	69	69	
89	89	0	0	0	0	0	89	89	0	
0	0	54	54	54	54	54	0	54	0	
69	69	69	69	69	69	69	69	69	0	
76	0	76	0	0	0	76	0	0	76	
94	0	0	94	94	94	0	94	94	94	
0	60	60	0	0	0	0	60	60	0	
0	47	0	47	47	47	47	0	0	0	
64	64	64	64	0	0	64	0	0	0	
0	85	0	85	0	85	85	85	85	0	
24	24	0	24	24	24	24	0	0	24	
0	0	0	77	77	0	77	77	77	0	
0	0	49	0	0	49	0	0	49	49	
82	0	82	0	82	0	0	82	0	0	
0	0	34	0	0	0	34	0	0	34	
0	0	18	0	0	18	0	18	18	0	
11	11	0	11	0	11	11	11	11	0	
0	0	0	42	0	0	42	0	0	0	
84	84	0	0	84	0	0	84	84	0	
0	0	0	76	0	0	0	76	0	76	
92	92	92	92	0	92	92	0	92	92	
0	0	0	84	0	84	84	84	84	0	
0	30	30	30	0	0	30	0	0	0	
64	0	0	0	64	64	64	0	64	0	
0	0	69	69	0	69	69	69	69	69	
0	0	0	0	0	20	0	20	20	20	
0	82	82	0	82	0	82	0	82	82	
86	0	86	0	0	0	0	86	0	0	
63	0	63	0	0	63	0	63	0	0	
0	71	71	0	0	71	0	0	71	0	
0	0	18	0	0	0	18	18	0	18	
0	0	69	0	69	0	0	0	0	69	
0	69	69	69	0	0	69	0	69	69	
0	0	69	69	0	0	69	69	69	0	
92	92	92	92	92	92	92	0	0	92	
0	51	51	0	51	0	0	51	51	51	
21	0	21	21	21	0	21	0	21	21	
58	58	0	0	0	58	0	0	58	0	
0	0	40	0	40	0	0	0	40	0	
0	88	88	88	88	0	0	88	88	88	
0	0	0	0	0	74	0	0	0	0	
31	31	0	0	0	31	31	0	31	31	
37	0	37	37	37	0	0	37	37	0	
0	90	0	0	90	90	0	0	90	90	
85	85	85	0	85	85	85	85	0	0	
0	0	0	24	0	0	24	24	24	24	
85	85	85	0	85	0	85	85	85	85	
79	0	0	0	79	0	79	0	79	79	
67	67	67	67	67	0	67	0	67	0	
82	82	0	0	0	0	82	82	0	0	
0	0	0	0	0	0	0	0	63	0	
0	82	82	0	0	82	0	82	0	82	
47	0	47	0	47	0	0	47	47	0	
62	62	62	62	62	62	0	0	0	62	
0	0	0	0	0	0	43	0	0	0	
0	11	0	0	0	0	11	11	11	11	
95	95	95	0	0	95	95	0	0	0	
20	20	0	0	20	20	20	0	20	0	
0	0	0	0	0	67	0	67	67	0	
0	93	93	0	0	93	0	0	93	93	
79	79	0	79	0	79	79	79	79	0	
0	0	0	0	0	64	0	64	0	64	
0	45	0	0	0	45	45	45	45	0	
96	96	96	0	96	0	96	96	0	0	
14	0	0	14	0	0	14	14	14	0	
0	0	28	0	28	28	0	0	28	0	
0	0	0	0	45	45	45	0	0	0	
60	60	60	60	60	0	0	60	60	0	
0	0	0	0	12	12	12	0	0	12	
73	0	0	73	0	73	0	0	73	73	
0	19	0	0	19	0	0	0	19	19	
58	58	0	58	0	58	0	58	58	0	
84	0	84	84	84	0	84	0	0	84	
37	0	0	37	37	0	37	37	0	37	
56	0	56	0	56	0	0	56	56	56	
0	0	0	28	0	0	0	28	28	0	
0	82	82	82	0	82	82	0	82	82	
0	0	80	80	80	80	0	80	0	0	
14	14	14	0	14	0	14	14	14	0	
60	0	0	60	60	60	0	0	0	0	
0	0	0	67	0	67	67	67	67	67	
62	0	62	62	62	0	0	62	0	62	
0	0	98	0	98	0	0	0	0	98	
34	34	0	34	34	34	34	34	34	0	
63	63	0	63	63	0	0	0	63	63	
91	0	0	0	91	91	0	0	91	0	
32	0	32	0	32	32	0	0	32	0	
33	0	0	0	33	33	0	0	0	0	
58	0	58	0	0	58	58	58	0	0	
90	0	0	0	0	0	0	90	90	0	
11	11	0	0	0	0	0	11	11	11	
0	0	50	50	0	50	0	0	50	0	
0	0	54	0	0	0	54	54	54	0	
68	68	68	0	68	68	0	68	0	68	
0	0	0	0	81	0	81	0	81	0	
34	0	34	34	0	0	34	34	34	0	
74	74	0	0	74	0	0	0	0	74	
85	0	85	0	85	0	0	0	0	85	
93	93	0	0	0	0	0	93	93	0	
0	78	0	0	78	0	78	0	78	78	
0	68	68	0	0	0	0	0	0	0	
0	60	0	0	0	60	0	0	0	60	
0	12	0	12	12	12	12	0	12	12	
0	0	0	0	48	48	48	0	48	0	
0	28	0	28	28	0	0	0	28	28	
0	0	0	85	85	85	85	85	85	85	
68	68	68	68	0	68	68	68	68	0	
37	0	0	37	37	0	37	37	37	0	
24	0	0	24	0	0	24	24	24	0	
0	0	0	0	0	31	31	0	0	0	
0	0	0	0	19	0	19	19	0	19	
75	75	75	75	75	75	75	0	75	0	
40	40	0	0	0	40	0	40	40	40	
0	0	0	67	67	67	67	0	67	0	
95	95	95	95	0	95	0	95	0	95	
86	0	0	0	0	86	86	86	0	0	
0	0	0	0	0	68	0	68	0	0	
33	0	33	33	33	0	33	0	0	33	
0	0	0	0	0	75	0	75	0	75	
0	65	65	0	65	0	65	0	0	0	
30	0	0	30	30	0	30	30	0	30	
18	18	0	0	0	18	0	18	0	18	
50	50	50	50	0	0	0	0	0	0	
96	0	0	0	96	0	0	96	0	96	
0	0	0	74	0	74	74	0	0	74	
0	0	0	0	0	53	53	53	53	0	
53	53	53	0	0	53	0	0	0	53	
41	0	41	41	0	41	0	0	41	0	
0	0	0	0	0	91	91	91	0	91	
0	0	0	0	70	0	70	70	70	0	
72	72	0	72	72	72	72	72	0	0	
96	0	0	0	96	96	96	0	96	0	
0	0	0	32	0	0	0	0	32	32	
0	43	0	0	43	0	43	0	0	0	
68	0	0	68	0	68	68	68	68	68	
84	0	84	84	84	0	84	84	0	0	
10	10	10	10	10	0	0	10	10	0	
0	12	12	12	0	0	0	12	12	0	
61	0	0	0	0	0	61	0	61	61	
0	0	0	0	0	0	0	0	32	0	
0	37	37	0	0	0	37	0	0	37	
0	0	0	98	0	98	98	0	98	0	
39	0	0	0	39	39	39	39	39	39	
25	0	25	25	0	0	25	25	25	25	
79	0	0	79	0	79	0	0	0	79	
97	97	97	97	0	0	0	97	97	97	
47	47	47	0	47	47	0	0	47	0	
23	0	0	0	23	0	0	23	0	0	
0	48	48	48	0	0	0	0	48	48	
96	96	0	0	96	0	0	96	96	96	
0	65	0	65	0	65	0	0	0	0	
40	40	0	0	40	40	0	0	40	40	
32	0	0	32	32	0	32	32	32	0	
33	33	0	33	0	0	33	33	0	0	
65	65	65	65	0	65	65	0	65	0	
0	0	0	0	0	0	0	0	58	58	
0	98	0	98	0	0	0	0	0	98	
74	74	0	74	0	74	0	74	74	0	
0	0	79	0	0	79	0	0	0	0	
68	68	68	0	0	68	0	0	68	68	
62	62	62	62	0	0	62	62	0	62	
41	0	0	41	41	0	41	0	41	41	
92	0	92	92	92	92	92	92	0	92	
66	66	0	66	66	0	0	66	66	66	
17	0	0	17	17	17	0	0	0	0	
0	0	47	47	47	0	47	47	47	0	
47	0	47	47	0	47	0	0	0	0	
48	48	48	48	48	48	48	48	0	0	
0	78	0	78	78	0	0	0	0	0	
0	0	0	0	60	60	60	0	60	60	
49	0	0	0	0	0	0	49	0	0	
0	0	0	24	24	24	24	0	24	24	
86	0	86	86	0	86	0	86	0	86	
36	36	0	0	36	36	0	36	0	36	
83	83	0	0	83	83	83	0	0	0	
42	42	0	0	42	42	0	42	0	42	
0	0	60	0	0	0	0	0	60	0	
0	60	60	0	60	60	60	0	0	60	
0	0	11	11	11	11	0	0	11	11	
43	43	0	0	43	43	0	0	0	0	
74	0	74	0	74	0	74	0	0	74	
0	0	49	49	49	0	0	0	49	49	
0	49	49	0	0	0	0	0	49	49	
0	0	0	55	55	0	55	0	0	0	
22	0	0	0	0	0	0	22	0	0	
65	65	0	65	65	0	0	65	65	65	
25	0	25	0	0	0	25	0	0	0	
30	0	30	0	30	0	30	30	30	0	
98	0	98	98	98	98	98	98	98	98	
0	57	0	57	57	57	0	0	57	0	
50	0	0	50	0	0	0	0	50	0	
0	0	0	62	0	0	62	62	62	0	
0	49	0	49	49	49	0	49	49	0	
0	35	0	35	35	35	35	35	0	0	
0	0	30	30	30	30	30	0	30	0	
0	35	35	0	35	35	0	0	0	0	
94	94	0	94	0	0	0	94	0	0	
0	45	0	0	0	45	0	0	0	0	
0	0	0	0	80	80	80	0	0	80	
0	42	42	0	0	0	0	42	0	0	
0	31	0	31	0	31	0	0	0	0	
70	0	70	0	70	0	70	0	0	70	
61	0	61	0	0	0	61	61	61	61	
0	98	98	98	98	0	0	0	98	0	
94	0	0	0	0	0	0	94	94	0	
25	0	25	0	0	0	0	0	25	0	
12	0	0	12	0	12	12	12	12	0	
0	77	77	77	77	77	0	0	77	77	
0	0	50	0	50	0	50	50	0	50	
61	0	0	61	61	0	0	0	61	0	
86	86	86	0	0	86	0	86	0	86	
0	0	0	0	0	52	0	0	52	52	
72	72	0	0	72	0	0	0	72	0	
0	58	58	0	0	0	0	58	0	0	
89	0	89	0	0	0	0	89	0	89	
24	0	0	24	0	24	0	24	0	24	
95	0	0	95	95	95	95	95	95	0	
0	0	80	0	0	0	0	80	0	80	
43	0	0	0	0	43	43	0	0	43	
28	28	28	0	0	0	0	0	0	28	
81	0	0	0	81	0	0	0	0	0	
0	0	48	0	48	48	0	48	0	48	
0	41	41	0	41	0	0	0	0	0	
0	0	42	42	0	42	0	0	42	0	
0	0	45	45	45	0	0	0	45	45	
71	71	71	0	71	0	71	71	0	0	
10	10	10	0	10	10	0	10	10	10	
98	98	0	98	98	98	98	0	98	98	
0	23	0	0	23	0	0	0	0	0	
79	0	79	79	79	79	79	79	0	79	
0	0	61	61	0	61	0	0	0	0	
0	0	0	0	29	0	29	0	0	0	
0	0	0	0	81	81	81	0	0	81	
78	0	78	0	78	0	0	0	78	0	
39	0	39	0	0	39	39	0	0	0	
52	52	0	52	52	0	0	52	0	0	
84	0	0	0	0	0	0	0	0	0	
93	0	93	93	0	0	93	0	93	0	
98	98	0	98	0	0	98	98	98	98	
0	0	0	0	0	0	0	83	0	0	
0	0	0	12	0	12	0	12	12	12	
0	0	21	21	0	21	21	21	0	21	
0	41	0	41	41	41	0	0	0	0	
10	10	0	10	10	0	10	10	10	0	
0	87	87	87	87	87	87	0	87	87	
37	37	0	0	37	0	0	0	37	37	
0	0	91	0	0	0	0	0	0	0	
96	0	0	0	0	96	96	0	0	0	
0	0	42	0	42	0	0	42	0	0	
0	93	0	0	0	0	93	0	93	0	
87	0	87	0	0	0	87	0	0	0	
0	0	57	0	0	57	57	0	0	0	
0	0	88	0	0	88	0	0	88	0	
0	16	16	0	0	0	16	16	0	16	
0	96	96	0	0	0	96	0	0	0	
41	41	41	41	41	41	0	0	41	41	
23	0	23	0	23	23	23	23	23	23	
0	0	75	75	75	75	0	75	75	0	
72	0	72	0	0	0	72	72	0	0	
33	33	33	33	33	0	33	33	33	33	
51	51	0	51	0	0	51	51	51	0	
59	59	59	0	0	59	0	59	0	0	
66	0	0	0	0	0	66	0	66	66	
24	0	0	24	0	24	0	0	24	24	
0	83	83	83	83	0	0	83	83	83	
74	74	0	74	74	0	74	0	0	0	
0	85	85	85	0	85	85	85	0	0	
0	0	94	0	94	0	0	94	0	0	
0	62	0	62	0	0	62	0	0	62	
42	42	42	42	42	0	42	42	42	0	
0	0	81	81	0	81	0	81	0	0	
0	49	0	49	49	0	49	49	49	49	
0	0	0	0	23	0	0	23	23	0	
0	0	0	0	56	56	0	0	56	0	
44	0	0	0	0	0	44	44	44	44	
46	46	0	0	0	0	46	0	0	46	
0	57	57	0	0	0	57	57	0	57	
0	0	0	10	10	10	0	0	10	10	
0	77	0	77	77	77	0	77	0	0	
53	53	53	53	53	53	0	53	0	0	
72	0	0	0	0	0	0	0	72	72	
20	0	20	0	0	0	20	0	20	0	
52	52	52	0	0	52	0	52	52	0	
0	0	0	0	0	10	10	0	0	10	
44	44	44	44	44	0	0	44	0	44	
50	50	0	0	50	0	50	50	50	50	
0	0	14	14	14	0	14	0	0	14	
45	0	45	45	0	45	0	0	0	0	
0	0	79	0	0	0	0	0	79	79	
0	83	0	83	83	83	0	83	0	83	
0	70	0	0	0	0	70	70	70	70	
0	10	0	10	0	0	0	0	0	10	
0	0	0	95	95	95	95	0	0	95	
0	0	18	18	18	18	18	18	18	18	
0	0	69	0	0	0	69	0	69	0	
0	0	0	71	0	0	0	0	71	71	
39	0	39	0	0	0	39	0	0	39	
0	57	57	0	57	57	0	0	0	0	
0	19	0	0	19	19	19	19	19	19	
0	93	93	93	0	0	0	93	0	93	
81	0	81	81	81	0	0	81	0	0	
47	0	47	0	47	0	47	0	47	0	
42	42	42	0	42	42	42	42	0	42	
0	0	75	0	0	0	0	0	75	75	
0	0	18	18	0	0	0	0	0	0	
32	0	0	32	32	0	32	32	0	32	
23	23	23	23	23	0	0	0	23	23	
0	0	69	69	69	69	0	0	0	0	
18	0	0	0	0	18	0	18	18	18	
72	72	0	72	0	72	72	0	0	72	
0	0	0	21	0	0	0	21	0	0	
95	0	95	95	95	95	0	0	0	95	
0	0	0	0	0	0	0	59	59	0	
0	49	49	0	0	0	49	49	49	49	
0	76	0	0	76	76	76	0	76	76	
13	0	0	13	13	13	13	0	0	0	
18	18	0	0	0	18	18	18	18	0	
70	0	0	70	70	0	70	70	70	70	
52	52	0	0	0	52	0	0	0	0	
0	0	36	36	36	36	0	36	36	0	
65	0	65	65	0	65	65	0	65	0	
12	12	0	12	0	12	0	0	0	0	
0	0	40	40	40	40	40	40	40	0	
50	50	50	50	50	0	0	50	50	0	
0	0	30	0	0	0	30	0	0	0	
0	0	0	0	0	98	0	98	0	0	
74	74	0	0	74	74	74	74	0	74	
0	49	0	0	49	0	0	49	0	49	
58	58	58	0	58	0	58	58	58	0	
91	0	0	91	0	91	0	0	0	0	
51	51	51	0	0	0	0	0	0	0	
0	22	0	0	22	0	22	0	0	22	
0	0	64	0	0	0	64	0	0	0	
0	79	0	0	79	0	0	0	79	79	
0	56	0	56	56	56	0	56	56	56	
46	0	46	46	46	0	0	0	0	46	
87	87	87	87	87	0	0	87	87	87	
14	0	0	0	0	0	0	0	0	14	
28	28	28	0	28	0	28	28	0	28	
53	0	0	0	0	0	0	53	0	0	
0	0	0	0	0	78	0	0	78	0	
30	0	30	30	30	30	0	30	0	30	
12	12	0	12	0	0	12	12	12	0	
40	40	0	0	0	40	40	40	0	40	
55	0	55	0	0	55	55	0	55	55	
0	81	0	0	81	0	81	81	81	81	
0	0	0	26	0	26	26	26	26	0	
34	0	34	0	34	0	0	34	34	0	
0	0	16	16	16	0	0	16	0	16	
0	0	0	0	82	0	82	82	0	0	
0	0	48	0	48	48	0	0	48	48	
13	13	13	13	0	0	13	13	0	13	
0	0	0	61	61	61	61	0	61	61	
0	0	0	38	38	38	38	38	0	0	
66	66	0	0	66	66	66	0	0	66	
0	59	59	59	0	59	59	0	0	59	
0	52	52	52	52	52	52	0	0	0	
29	0	0	0	0	0	0	0	29	29	
89	0	0	89	0	0	0	0	0	0	
0	0	24	0	0	0	0	0	0	24	
26	0	26	0	26	0	0	0	26	0	
55	55	55	55	55	0	0	0	0	55	
0	23	0	23	23	0	23	0	0	0	
17	0	0	0	17	17	0	0	17	0	
35	35	35	35	35	35	35	0	35	0	
24	0	0	0	0	24	24	24	24	0	
0	0	0	0	0	22	0	0	0	22	
0	0	0	17	0	0	0	17	0	0	
35	0	35	35	35	35	0	0	0	0	
0	0	95	0	0	0	0	0	95	0	
15	15	0	15	15	15	15	0	15	0	
0	0	46	0	0	0	46	46	46	46	
11	0	0	11	11	0	11	11	0	0	
0	0	28	0	0	0	0	0	0	28	
0	0	81	0	81	81	81	0	81	81	
0	40	40	40	0	40	0	0	40	40	
60	60	60	0	60	0	0	60	0	60	
96	96	0	0	0	0	96	96	96	0	
0	0	0	0	39	0	39	39	0	39	
82	82	0	82	82	82	82	82	0	82	
58	0	58	0	58	0	0	58	58	0	
0	73	0	73	0	73	0	73	73	73	
27	27	0	27	27	0	27	0	27	27	
0	80	80	80	0	80	0	0	0	80	
0	0	0	0	23	23	0	23	23	23	
0	0	0	0	0	81	81	0	81	81	
0	56	0	0	56	56	56	0	56	0	
79	79	79	79	79	0	79	79	79	0	
98	0	98	98	0	0	98	0	0	0	
0	61	61	61	61	61	0	61	0	0	
0	42	0	42	42	42	42	0	42	42	
35	35	35	35	0	35	35	0	35	0	
29	0	0	0	0	29	0	29	29	29	
0	0	38	38	38	0	0	38	38	0	
76	0	76	76	76	0	76	0	0	76	
96	96	0	96	96	0	0	0	96	0	
28	28	28	0	28	0	28	28	28	28	
79	0	79	0	79	79	0	79	79	79	
13	13	0	0	0	0	13	13	13	0	
40	0	0	0	40	40	0	40	0	0	
12	12	12	12	0	0	0	0	0	0	
0	0	0	0	94	94	94	0	0	0	
0	27	27	27	0	0	27	0	27	27	
17	0	0	17	0	0	17	17	0	0	
46	46	46	46	0	46	46	0	46	46	
0	12	0	0	12	0	0	12	0	0	
0	0	0	0	37	0	37	0	37	37	
0	39	39	39	0	39	0	0	39	39	
0	0	57	0	0	0	57	0	0	57	
0	67	0	0	0	67	0	0	0	67	
0	0	52	52	52	52	0	52	52	52	
36	0	0	36	0	0	36	36	36	36	
0	80	80	80	80	80	80	0	0	0	
0	0	0	40	40	0	0	40	40	40	
72	0	0	72	0	0	72	72	0	0	
31	31	0	31	0	31	0	0	0	0	
31	0	0	31	31	31	31	31	31	31	
0	0	0	0	78	78	0	0	78	78	
55	0	55	0	55	0	55	0	55	55	
0	25	0	25	0	25	0	25	0	0	
0	70	0	0	0	0	0	70	0	0	
85	85	0	85	0	0	85	0	85	0	
41	41	0	0	41	41	0	41	0	41	
82	0	82	82	0	82	0	82	82	82	
32	32	0	0	0	32	0	0	32	0	
35	35	0	0	0	35	35	35	35	0	
0	0	78	78	0	0	0	0	78	0	
0	22	0	22	22	0	0	0	22	0	
0	0	0	34	34	34	34	0	34	0	
0	0	72	72	0	72	72	72	0	72	
0	0	68	0	0	0	0	68	0	0	
41	0	0	0	41	41	41	0	41	0	
0	65	0	0	65	0	0	65	0	65	
88	88	88	0	88	88	88	0	88	88	
86	86	86	0	86	86	86	0	86	86	
0	54	0	54	54	54	0	0	0	54	
0	87	0	87	0	87	0	0	87	87	
56	0	56	56	0	56	56	56	56	56	
0	45	0	45	45	0	0	0	45	0	
0	38	0	38	0	0	38	38	38	0	
0	62	62	0	62	62	0	62	0	0	
12	12	0	0	0	0	12	0	0	12	
0	0	0	0	90	90	90	0	90	90	
0	73	0	0	0	73	73	73	0	0	
68	68	68	68	0	68	0	0	0	0	
35	35	35	0	0	35	0	35	0	0	
91	91	91	0	91	0	91	0	91	0	
0	57	57	57	0	57	57	0	0	0	
0	0	93	93	0	0	93	93	93	0	
96	0	0	0	0	96	96	0	96	96	
11	11	0	11	11	0	0	0	0	11	
0	0	0	67	67	67	67	0	67	67	
0	0	75	75	75	75	75	0	0	75	
0	0	18	0	0	0	0	18	0	18	
78	78	0	0	78	78	0	0	78	0	
0	73	0	73	0	73	73	73	0	0	
0	79	79	79	79	79	79	79	79	0	
0	0	0	70	70	0	0	0	0	0	
92	92	0	0	92	92	92	0	92	0	
0	10	10	10	10	10	10	10	0	10	
0	97	0	97	97	97	0	97	0	0	
54	0	54	0	54	0	0	54	0	0	
0	29	29	0	0	29	29	29	0	0	
0	0	0	0	49	49	0	0	0	49	
80	80	0	80	0	80	0	80	80	0	
49	49	0	49	49	0	49	0	0	49	
82	0	82	0	0	0	0	82	0	82	
16	16	0	0	16	16	0	0	16	16	
0	0	31	31	0	31	31	31	31	0	
43	0	43	0	0	43	43	43	0	0	
32	0	0	0	32	0	0	32	32	0	
0	0	74	0	74	74	0	74	0	74	
31	31	0	0	31	31	31	31	0	31	
0	10	0	0	10	10	10	10	0	0	
51	0	0	0	51	0	0	51	0	51	
0	35	0	0	0	0	35	35	0	35	
15	0	0	15	15	0	0	0	15	15	
98	98	0	0	0	98	0	98	0	98	
0	87	0	0	87	0	87	0	87	0	
0	43	0	0	43	0	43	43	43	43	
0	24	0	0	0	0	24	24	0	0	
0	0	21	0	21	0	0	0	21	0	
0	0	95	95	0	95	0	95	95	0	
85	85	85	0	85	85	85	85	85	0	
12	12	0	12	0	0	0	12	0	12	
0	0	35	35	0	35	35	0	0	35	
0	81	0	81	81	0	81	81	0	0	
29	0	29	29	0	29	0	0	29	29	
21	21	21	0	0	21	21	21	0	0	
0	0	31	31	0	0	0	31	31	31	
49	0	0	49	49	0	0	0	0	0	
69	0	69	0	0	0	0	69	0	0	
0	0	0	0	0	81	0	81	0	81	
20	20	20	20	20	20	0	20	0	20	
0	82	82	0	0	0	82	0	0	82	
0	0	56	0	56	0	0	0	0	56	
63	0	63	0	0	63	63	63	63	0	
0	0	49	49	49	49	49	49	0	49	
49	49	0	49	49	49	49	49	49	49	
52	0	0	0	52	52	52	0	52	0	
0	92	92	92	92	0	92	92	0	92	
0	0	32	32	0	32	0	32	0	32	
58	0	58	0	58	58	0	58	0	0	
0	0	85	0	0	0	0	85	0	0	
0	10	0	10	0	0	0	10	0	0	
0	61	0	61	0	61	0	61	0	61	
45	0	45	45	0	45	45	45	0	0	
87	0	87	0	87	0	87	87	0	87	
0	0	52	52	0	52	0	52	52	52	
0	14	0	0	14	14	0	14	0	0	
0	96	96	96	96	0	96	0	96	0	
65	65	0	0	0	0	0	65	0	0	
0	65	65	0	0	65	65	65	65	65	
0	0	0	79	79	0	79	79	0	79	
0	32	0	32	32	32	0	0	32	32	
0	70	70	0	0	0	0	0	0	0	
43	0	43	0	43	0	0	43	43	0	
0	0	0	46	0	0	0	46	46	46	
95	95	0	0	95	0	95	0	0	0	
36	36	36	0	36	0	36	36	0	36	
84	0	0	84	0	84	0	84	84	84	
57	57	0	0	0	57	0	57	57	0	
0	55	0	55	0	0	0	0	0	0	
29	0	0	0	29	0	29	29	0	0	
59	59	0	59	59	59	59	0	0	0	
0	40	0	40	40	0	0	0	0	0	
0	0	0	0	0	70	70	70	70	70	
39	39	39	39	0	0	39	39	0	0	
0	0	27	27	27	0	0	27	27	27	
0	84	0	84	84	84	84	84	0	0	
95	0	0	95	0	0	95	0	95	95	
0	0	60	60	60	60	60	60	0	60	
81	0	0	0	81	81	0	81	0	81	
0	0	0	0	0	90	0	0	0	0	
37	37	37	0	37	37	0	0	0	37	
0	43	0	0	43	43	0	0	0	0	
0	44	0	0	0	0	0	44	0	44	
32	32	32	32	32	32	0	0	0	32	
0	25	25	25	0	0	0	0	0	0	
10	10	0	0	10	10	10	10	0	10	
97	0	0	0	97	97	0	97	97	97	
52	0	52	0	0	52	52	52	52	0	
0	0	0	18	0	0	18	0	0	0	
0	97	0	97	0	97	97	97	97	0	
26	0	26	0	0	26	26	0	26	26	
36	36	36	36	0	0	0	0	0	0	
0	0	80	80	0	0	80	0	0	0	
63	0	0	63	0	63	0	0	63	63	
83	83	0	0	0	0	83	0	0	0	
0	0	46	46	46	46	0	46	46	46	
57	57	0	0	57	57	57	0	57	0	
79	79	79	79	79	0	0	79	0	0	
0	10	10	0	0	10	0	10	0	10	
0	69	0	69	69	69	69	69	0	0	
97	0	0	0	97	97	97	97	0	0	
76	0	0	0	76	76	0	76	76	0	
34	34	34	0	34	0	0	34	34	0	
16	16	0	16	16	0	16	16	0	16	
58	58	0	0	58	58	0	58	58	0	
0	29	29	0	0	0	29	0	29	0	
57	0	0	0	57	0	0	57	57	0	
10	10	0	0	0	10	0	0	10	10	
15	0	0	15	15	0	15	15	15	15	
0	0	0	17	17	17	17	17	0	0	
41	41	0	0	41	0	41	41	0	0	
88	0	0	88	88	88	0	0	0	88	
0	0	0	55	0	0	55	55	0	0	
37	37	37	37	0	37	37	0	0	37	
0	46	46	46	46	0	0	46	46	0	
0	0	23	23	0	0	23	23	23	23	
42	0	0	0	42	42	0	42	0	42	
0	0	72	72	0	0	0	72	72	72	
59	0	0	0	59	0	59	59	0	0	
0	0	0	64	0	64	64	64	64	64	
0	77	77	0	0	77	77	77	77	0	
54	0	54	0	54	0	54	0	54	0	
60	0	0	0	0	0	60	60	0	60	
0	63	0	63	63	0	63	63	0	0	
0	22	0	22	0	22	0	22	22	0	
0	94	0	0	0	0	0	0	0	94	
0	0	27	0	27	27	27	0	27	0	
94	94	0	0	0	94	94	0	0	94	
29	0	29	0	0	29	0	0	0	0	
0	0	0	17	0	0	0	0	0	0	
49	49	49	0	0	0	49	49	49	0	
78	78	0	0	78	0	78	0	0	78	
0	0	11	11	0	0	0	0	11	0	
19	19	0	19	19	19	19	19	0	0	
29	0	29	0	29	29	0	29	0	29	
0	52	0	52	52	0	52	0	0	52	
0	40	40	40	0	40	0	0	0	40	
0	0	62	0	62	0	0	62	0	62	
0	77	0	0	77	77	77	0	77	0	
0	92	92	92	92	0	0	0	92	0	
41	41	0	41	0	0	41	0	0	41	
82	82	0	0	82	82	82	0	0	0	
0	60	0	60	60	0	60	0	60	60	
50	0	50	0	0	0	0	50	50	0	
50	0	50	0	50	0	50	50	50	0	
0	0	0	0	38	0	0	0	0	0	
0	0	52	0	0	0	0	52	52	0	
0	0	0	0	0	13	13	0	0	0	
0	0	0	77	0	0	0	77	77	0	
28	28	0	0	0	28	0	28	28	0	
46	0	0	0	0	46	46	0	0	0	
0	0	81	0	81	81	0	0	81	0	
0	94	94	0	94	0	0	94	0	94	
0	0	0	0	49	0	49	49	0	0	
30	0	0	30	0	30	30	0	0	30	
62	0	0	62	62	62	0	62	62	0	
14	14	14	14	14	14	0	14	14	14	
47	47	47	47	47	0	47	0	47	0	
60	60	0	0	0	0	0	0	0	60	
0	73	73	73	73	0	0	73	73	0	
0	0	0	28	0	28	0	28	0	28	
46	0	46	0	0	46	46	46	46	0	
29	0	29	29	0	29	0	0	29	0	
45	45	0	45	45	45	45	0	0	45	
22	0	0	0	0	22	0	22	22	22	
88	88	88	88	88	88	88	0	0	88	
33	33	0	0	33	33	33	0	0	0	
0	0	94	94	94	0	0	0	0	94	
27	27	27	27	0	27	0	27	0	27	
0	41	0	0	41	41	0	0	41	0	
23	0	23	0	0	0	0	0	23	0	
28	0	0	0	0	28	28	0	0	0	
0	0	50	0	50	0	0	0	50	0	
73	73	73	73	0	0	73	0	73	73	
0	0	91	91	0	91	0	0	0	0	
52	52	52	0	52	0	0	0	0	52	
0	0	60	60	0	60	0	60	0	0	
12	0	12	0	12	12	12	0	0	0	
39	0	39	39	0	0	39	39	39	39	
90	90	0	90	90	0	90	0	0	90	
0	0	41	0	41	0	41	41	0	0	
89	0	89	89	0	0	0	89	89	0	
55	0	0	0	0	0	0	0	0	55	
0	0	0	0	93	0	93	0	0	93	
28	0	28	28	28	0	0	28	0	28	
47	47	0	47	47	47	47	47	47	47	
0	0	0	0	13	0	0	13	0	13	
97	0	0	97	97	0	97	97	97	97	
0	0	0	0	0	23	0	23	23	0	
53	0	0	0	53	0	53	0	0	53	
0	13	13	0	13	0	13	13	0	13	
34	0	34	34	34	0	34	34	34	0	
98	0	98	98	98	0	98	98	0	98	
25	0	0	25	0	0	0	0	25	25	
98	98	0	0	0	98	0	0	98	98	
88	0	88	0	0	0	0	0	88	88	
0	0	0	84	0	84	0	84	0	0	
18	18	18	0	0	0	18	0	18	0	
0	91	0	91	0	91	91	91	91	0	
0	0	67	67	67	0	0	67	67	67	
10	0	0	0	0	10	10	0	10	10	
53	0	53	0	53	0	53	53	0	53	
72	72	72	72	72	0	72	0	0	0	
84	84	0	0	84	0	0	84	84	84	
60	60	60	0	0	60	60	0	60	60	
80	80	0	0	0	0	0	80	0	0	
0	28	0	0	0	0	0	28	0	28	
0	0	0	70	70	0	0	70	0	70	
64	64	0	0	64	0	0	64	0	0	
68	0	0	68	0	0	68	0	0	68	
0	0	22	0	22	0	0	0	22	22	
77	77	77	0	0	77	0	0	0	77	
0	55	0	0	55	55	0	0	55	55	
53	0	53	0	0	53	0	53	0	0	
0	29	29	29	0	29	0	0	29	29	
0	0	0	0	0	0	41	0	0	0	
52	52	52	0	0	52	52	0	0	0	
57	57	0	0	0	57	0	57	57	57	
0	18	18	18	18	18	0	18	18	0	
0	0	93	93	93	93	93	93	0	0	
0	0	92	92	92	0	92	0	92	0	
68	0	0	68	0	68	0	0	0	68	
0	0	84	0	84	84	0	0	84	0	
20	0	20	20	0	20	0	0	20	0	
0	0	71	0	0	71	0	71	71	0	
72	72	0	72	72	0	0	0	0	72	
0	91	91	91	0	91	0	91	0	91	
89	89	0	0	0	89	0	89	89	89	
0	61	61	61	61	61	61	61	0	0	
0	0	0	57	57	57	57	0	0	0	
83	83	83	0	0	0	83	0	83	83	
0	0	0	0	0	0	44	44	0	44	
0	14	0	0	0	14	14	0	0	14	
0	57	57	0	57	0	0	0	57	0	
0	0	57	0	0	0	0	0	57	0	
0	48	0	0	48	0	0	0	0	0	
76	76	0	76	76	76	0	0	76	0	
0	39	39	39	0	0	0	39	0	39	
0	0	97	0	97	0	97	0	97	97	
0	0	10	0	0	0	10	10	0	10	
0	59	59	59	0	59	59	59	59	0	
50	50	0	0	50	50	0	50	0	50	
95	0	0	95	0	95	0	0	0	0	
0	24	24	24	24	24	0	0	24	0	
0	45	45	45	0	0	0	0	45	0	
0	0	0	50	50	50	0	0	0	50	
0	0	0	0	0	20	20	0	0	0	
0	67	67	67	0	0	0	0	67	67	
17	0	17	0	0	0	0	0	17	0	
82	82	82	82	82	0	82	82	0	0	
92	0	0	0	92	92	92	92	0	92	
61	61	61	0	61	61	61	61	61	0	
0	61	61	0	61	0	61	0	0	0	
0	0	67	67	0	67	67	0	67	0	
